DIMENSION : 4
EDGE_WEIGHT_TYPE : EUC_2D
NODE_COORD_SECTION

1 457822932.1868344 122831586.4635
1 457822932.1868344 122831586.4635
2 458385939.2610607 122296612.48323001
3 457630041.28494024 120820040.23776999
4 457364706.34073883 122095096.41373
1 457822932.1868344 122831586.4635
2 458385939.2610607 122296612.48323001
3 457630041.28494024 120820040.23776999
4 457364706.34073883 122095096.41373